32358
145,245,649,656,677,721,732,777,807,943,1038,1199,1202,1342,1365,1512,1525,1617,1673,1733,1805,1890,1896,1970,2234,2310,2402,2504,2543,2596,2683,2727,2767,2821,2874,3126,3153,3175,3202,3206,3236,3245,3262,3337,3495,3775,3795,3851,3944,3952,4257,4350,4369,4396,4442,4513,4648,4797,4919,4948
